(set-info :source |printed by MathSAT|)
(declare-fun call_greycounter.b () Bool)
(declare-fun call_intloopcounter.out () Bool)
(declare-fun call_intloopcounter.time () Int)
(declare-fun call_greycounter.flby2 () Bool)
(declare-fun _OK_ () Bool)
(declare-fun call_greycounter.flby () Bool)
(declare-fun call_greycounter.a () Bool)
(declare-fun call_greycounter.out () Bool)
(declare-fun d () Bool)
(declare-fun b () Bool)
(declare-fun call_intloopcounter.flby () Int)
(define-fun .def_130 () Bool (= call_intloopcounter.flby 0))
(define-fun .def_128 () Bool (not call_greycounter.flby2))
(define-fun .def_127 () Bool (not call_greycounter.flby))
(define-fun .def_129 () Bool (and .def_127 .def_128))
(define-fun .def_131 () Bool (and .def_129 .def_130))
(define-fun .def_125 () Bool (= call_intloopcounter.time call_intloopcounter.flby))
(define-fun .def_121 () Bool (= call_intloopcounter.time 2))
(define-fun .def_122 () Bool (= call_intloopcounter.out .def_121))
(define-fun .def_118 () Bool (= call_greycounter.b call_greycounter.flby2))
(define-fun .def_115 () Bool (= call_greycounter.a call_greycounter.flby))
(define-fun .def_111 () Bool (and call_greycounter.a call_greycounter.b))
(define-fun .def_112 () Bool (= call_greycounter.out .def_111))
(define-fun .def_107 () Bool (= d call_intloopcounter.out))
(define-fun .def_104 () Bool (= b call_greycounter.out))
(define-fun .def_101 () Bool (= b d))
(define-fun .def_102 () Bool (= _OK_ .def_101))
(define-fun .def_105 () Bool (and .def_102 .def_104))
(define-fun .def_108 () Bool (and .def_105 .def_107))
(define-fun .def_113 () Bool (and .def_108 .def_112))
(define-fun .def_116 () Bool (and .def_113 .def_115))
(define-fun .def_119 () Bool (and .def_116 .def_118))
(define-fun .def_123 () Bool (and .def_119 .def_122))
(define-fun .def_126 () Bool (and .def_123 .def_125))
(define-fun .def_132 () Bool (and .def_126 .def_131))
(assert .def_132)
